DATASET = "thpack7";
INSTANCE = "075";

WIDTH = 233;
HEIGHT = 220;
LENGTH = 587;

NO_OF_SHAPES = 20;
size = [|
  101,81,24 |
  94,72,29 |
  79,72,47 |
  90,36,35 |
  68,51,40 |
  48,45,35 |
  108,84,69 |
  91,45,31 |
  84,80,62 |
  77,71,41 |
  91,78,42 |
  82,80,60 |
  89,42,26 |
  45,41,30 |
  79,51,29 |
  56,53,20 |
  117,78,39 |
  84,78,42 |
  118,66,46 |
  116,42,30 |
|];

verticality = [|
  0,0,1 |
  0,0,1 |
  1,1,1 |
  0,1,1 |
  1,1,1 |
  1,1,1 |
  1,1,1 |
  0,1,1 |
  1,1,1 |
  1,1,1 |
  0,1,1 |
  1,1,1 |
  0,1,1 |
  1,1,1 |
  0,1,1 |
  0,0,1 |
  0,0,1 |
  0,1,1 |
  0,1,1 |
  0,1,1 |
|];

box_count = [
  8,
  5,
  7,
  5,
  5,
  11,
  9,
  7,
  4,
  6,
  5,
  10,
  3,
  3,
  8,
  10,
  7,
  2,
  7,
  7,
];
